(declare-fun temp3566_1 () (_ BitVec 64))
(declare-fun temp3566_2 () (_ BitVec 64))
(declare-fun var82670 () (_ BitVec 64))
(declare-fun k!0 () Bool)
(declare-fun ARGNAME_input_NAMEEND_DIM () (_ BitVec 64))
(declare-fun temp3566_3 () (_ BitVec 64))
(declare-fun ARGNAME_sections_NAMEEND () (_ BitVec 64))
(declare-fun var82695 () (_ BitVec 64))
(declare-fun temp3566_4 () (_ BitVec 64))
(declare-fun temp3566_5 () (_ BitVec 64))
(declare-fun var67369 () (_ BitVec 64))
(declare-fun temp3566_6 () (_ BitVec 64))
(declare-fun temp3566_7 () (_ BitVec 64))
(declare-fun ARGNAME_input_NAMEEND_DIMSIZE
             ()
             (Array (_ BitVec 64) (_ BitVec 64)))
(declare-fun temp3566_8 () (_ BitVec 64))
(declare-fun temp3566_9 () (_ BitVec 64))
(declare-fun temp3566_10 () (_ BitVec 64))
(declare-fun temp3566_11 () (_ BitVec 64))
(declare-fun temp3566_12 () (_ BitVec 64))
(declare-fun temp3566_13 () (_ BitVec 64))
(declare-fun temp3566_14 () (_ BitVec 64))
(declare-fun temp3566_15 () (_ BitVec 64))
(declare-fun temp3566_16 () (_ BitVec 64))
(declare-fun temp3566_17 () (_ BitVec 64))
(declare-fun temp3566_18 () (_ BitVec 64))
(declare-fun temp3566_19 () (_ BitVec 64))
(declare-fun temp3566_20 () (_ BitVec 64))
(declare-fun temp3566_21 () (_ BitVec 64))
(declare-fun temp3566_22 () (_ BitVec 64))
(declare-fun temp3566_23 () (_ BitVec 64))
(declare-fun temp3566_25 () (_ BitVec 64))
(declare-fun temp3566_26 () (_ BitVec 64))
(declare-fun temp3566_24 () (_ BitVec 64))
(declare-fun var82709 () (_ BitVec 64))
(declare-fun temp3566_27 () (_ BitVec 64))
(declare-fun var82710 () (_ BitVec 64))
(declare-fun temp3566_28 () (_ BitVec 64))
(declare-fun var140605 () (_ BitVec 64))
(declare-fun temp3566_29 () (_ BitVec 64))
(declare-fun var140635 () (_ BitVec 64))
(declare-fun temp3566_30 () (_ BitVec 64))
(declare-fun temp3566_31 () (_ BitVec 64))
(declare-fun var140664 () (_ BitVec 64))
(declare-fun temp3566_32 () (_ BitVec 64))
(declare-fun temp3566_34 () (_ BitVec 64))
(declare-fun temp3566_33 () (_ BitVec 64))
(declare-fun temp3566_36 () (_ BitVec 64))
(declare-fun temp3566_35 () (_ BitVec 64))
(declare-fun var462146 () (_ BitVec 64))
(declare-fun temp3566_37 () (_ BitVec 64))
(declare-fun temp3566_38 () (_ BitVec 64))
(declare-fun var527687 () (_ BitVec 64))
(declare-fun var593234 () (_ BitVec 64))
(declare-fun temp3566_39 () (_ BitVec 64))
(declare-fun var1130139 () (_ BitVec 64))
(declare-fun temp3566_40 () (_ BitVec 64))
(declare-fun var1130188 () (_ BitVec 64))
(declare-fun temp3566_41 () (_ BitVec 64))
(declare-fun temp3566_42 () (_ BitVec 64))
(declare-fun var1380938 () (_ BitVec 64))
(declare-fun temp3566_43 () (_ BitVec 64))
(declare-fun var2101834 () (_ BitVec 64))
(declare-fun temp3566_44 () (_ BitVec 64))
(declare-fun var1130305 () (_ BitVec 64))
(declare-fun temp3566_45 () (_ BitVec 64))
(declare-fun temp3566_46 () (_ BitVec 64))
(declare-fun var1130369 () (_ BitVec 64))
(declare-fun temp3566_47 () (_ BitVec 64))
(declare-fun var1130393 () (_ BitVec 64))
(declare-fun var1130394 () (_ BitVec 64))
(declare-fun temp3566_48 () (_ BitVec 64))
(declare-fun var3357340 () (_ BitVec 64))
(declare-fun var3357341 () (_ BitVec 64))
(declare-fun var3357344 () (_ BitVec 64))
(declare-fun temp3566_50 () (_ BitVec 64))
(declare-fun temp3566_49 () (_ BitVec 64))
(assert (= temp3566_1 #x0000000000000003))
(assert (= var82670
   (ite (bvslt ARGNAME_input_NAMEEND_DIM temp3566_1)
        #x0000000000000001
        #x0000000000000000)))
(assert (= temp3566_2 #x0000000000000000))
(assert (= var82670 temp3566_2))
(assert (= temp3566_3 #x0000000000000000))
(assert (= var82695
   (ite (= ARGNAME_sections_NAMEEND temp3566_3)
        #x0000000000000001
        #x0000000000000000)))
(assert (= temp3566_4 #x0000000000000000))
(assert (= var82695 temp3566_4))
(assert (= temp3566_5 #x0000000000000002))
(assert (= var67369 temp3566_5))
(assert (= temp3566_6 #x0000000000000000))
(assert (= temp3566_7 temp3566_6))
(assert (= temp3566_8 (select ARGNAME_input_NAMEEND_DIMSIZE temp3566_7)))
(assert (= temp3566_9 #x0000000000000001))
(assert (= temp3566_10 temp3566_9))
(assert (= temp3566_11 (select ARGNAME_input_NAMEEND_DIMSIZE temp3566_10)))
(assert (= temp3566_12 #x0000000000000002))
(assert (= temp3566_13 temp3566_12))
(assert (= temp3566_14 (select ARGNAME_input_NAMEEND_DIMSIZE temp3566_13)))
(assert (= temp3566_15 #x0000000000000003))
(assert (= temp3566_16 temp3566_15))
(assert (= temp3566_17 (select ARGNAME_input_NAMEEND_DIMSIZE temp3566_16)))
(assert (= temp3566_18 #x0000000000000004))
(assert (= temp3566_19 temp3566_18))
(assert (= temp3566_20 (select ARGNAME_input_NAMEEND_DIMSIZE temp3566_19)))
(assert (= temp3566_21 #x0000000000000005))
(assert (= temp3566_22 temp3566_21))
(assert (= temp3566_23 (select ARGNAME_input_NAMEEND_DIMSIZE temp3566_22)))
(assert (= temp3566_25 var67369))
(assert (= temp3566_26 (select ARGNAME_input_NAMEEND_DIMSIZE temp3566_25)))
(assert (= temp3566_24 temp3566_26))
(assert (= var82709 (bvsmod temp3566_24 ARGNAME_sections_NAMEEND)))
(assert (= temp3566_27 #x0000000000000000))
(assert (= var82710
   (ite (= var82709 temp3566_27) #x0000000000000001 #x0000000000000000)))
(assert (= temp3566_28 #x0000000000000001))
(assert (= var82710 temp3566_28))
(assert (= var140605 var67369))
(assert (= temp3566_29 #x0000000000000001))
(assert (= var140635
   (ite (bvslt ARGNAME_input_NAMEEND_DIM temp3566_29)
        #x0000000000000001
        #x0000000000000000)))
(assert (= temp3566_30 #x0000000000000000))
(assert (= var140635 temp3566_30))
(assert (= temp3566_31 #x0000000000000001))
(assert (= var140664
   (ite (bvslt ARGNAME_sections_NAMEEND temp3566_31)
        #x0000000000000001
        #x0000000000000000)))
(assert (= temp3566_32 #x0000000000000000))
(assert (= var140664 temp3566_32))
(assert (= temp3566_34 #x0000000000000000))
(assert (= temp3566_33 temp3566_34))
(assert (= temp3566_36 #x0000000000000000))
(assert (= temp3566_35 temp3566_36))
(assert (= var462146
   (ite (bvslt temp3566_35 ARGNAME_sections_NAMEEND)
        #x0000000000000001
        #x0000000000000000)))
(assert (= temp3566_37
   (ite (= var462146 #x0000000000000001) ARGNAME_sections_NAMEEND temp3566_35)))
(assert (= temp3566_38 #x0000000000000000))
(assert (= var527687 temp3566_38))
(assert (= var593234 var527687))
(assert (= temp3566_39 #x0000000000000001))
(assert (= var1130139 temp3566_39))
(assert (= temp3566_40 #x0000000000000000))
(assert (= var1130188
   (ite (= ARGNAME_input_NAMEEND_DIM temp3566_40)
        #x0000000000000001
        #x0000000000000000)))
(assert (= temp3566_41 #x0000000000000000))
(assert (= var1130188 temp3566_41))
(assert (= temp3566_42 #x0000000000000005))
(assert (= var1380938 temp3566_42))
(assert (= temp3566_43 #x0000000000000005))
(assert (= var2101834 temp3566_43))
(assert (= temp3566_44 #x0000000000000001))
(assert (= var1130305
   (ite (bvslt var1130139 temp3566_44) #x0000000000000001 #x0000000000000000)))
(assert (= temp3566_45 #x0000000000000000))
(assert (= var1130305 temp3566_45))
(assert (= temp3566_46 #x0000000000000000))
(assert (= var1130369 temp3566_46))
(assert (= temp3566_47 #xffffffffffffffff))
(assert (= var1130393 (bvxor var1130369 temp3566_47)))
(assert (= var1130394 (bvadd var1130393 var1130139)))
(assert (= temp3566_48 #x0000000000000000))
(assert (= var3357340 temp3566_48))
(assert (= var3357341 var1130369))
(assert (= var3357344 var1130139))
(assert (= temp3566_50 #x0000000000000000))
(assert (= temp3566_49 temp3566_50))
(model-add temp3566_1 () (_ BitVec 64) #x0000000000000003)
(model-add temp3566_2 () (_ BitVec 64) #x0000000000000000)
(model-add var82670 () (_ BitVec 64) #x0000000000000000)
(model-del k!0)
(model-add ARGNAME_input_NAMEEND_DIM
           ()
           (_ BitVec 64)
           (ite (or k!0 (= #x0000000000000003 #x8000000000000000))
                #x0000000000000003
                (bvsub #x0000000000000003 #x0000000000000001)))






